//Dat File

outFile="MPVSBPP_SET1_IT200_ITV1_NT2_TS3_WT1_VT1_REP9";
m=200;
o=96;
p=3;
numVTypes=3;

demand = [5, 5, 4, 4, 11, 3, 11, 5, 1, 3, 2, 4, 11, 3, 10, 2, 5, 4, 9, 4, 2, 5, 4, 5, 10, 7, 10, 9, 1, 3, 1, 2, 4, 2, 3, 2, 7, 6, 7, 10, 4, 4, 11, 6, 10, 1, 1, 7, 3, 2, 11, 10, 2, 9, 4, 4, 10, 9, 5, 5, 4, 5, 11, 4, 9, 7, 9, 9, 4, 11, 11, 9, 3, 9, 4, 10, 1, 11, 11, 2, 10, 5, 4, 1, 5, 8, 6, 6, 10, 2, 10, 11, 10, 3, 2, 1, 10, 11, 7, 5, 6, 9, 2, 3, 1, 2, 1, 7, 10, 2, 3, 4, 7, 3, 9, 7, 9, 10, 10, 3, 3, 2, 2, 11, 11, 4, 3, 11, 2, 11, 3, 1, 11, 4, 7, 11, 5, 10, 3, 7, 3, 3, 1, 11, 3, 2, 7, 1, 10, 10, 18, 13, 18, 12, 16, 17, 15, 13, 14, 19, 14, 19, 19, 16, 14, 12, 13, 14, 18, 18, 16, 14, 15, 18, 16, 15, 17, 12, 12, 16, 15, 17, 18, 17, 12, 12, 17, 16, 12, 15, 13, 13, 15, 14, 15, 18, 16, 14, 12, 14];
Depot_Cap = [30000, 30000, 30000];
Tarif = [10, 3, 7];
VeicVolume = [100, 150, 200];
VeicCost = [100, 120, 140];
VeicType = [1, 1, 1, 1, 1, 1, 1, 1, 1, 1, 1, 1, 1, 1, 1, 1, 1, 1, 1, 1, 1, 1, 1, 1, 1, 1, 1, 1, 1, 1, 1, 1, 2, 2, 2, 2, 2, 2, 2, 2, 2, 2, 2, 2, 2, 2, 2, 2, 2, 2, 2, 2, 2, 2, 2, 2, 2, 2, 2, 2, 2, 2, 2, 2, 3, 3, 3, 3, 3, 3, 3, 3, 3, 3, 3, 3, 3, 3, 3, 3, 3, 3, 3, 3, 3, 3, 3, 3, 3, 3, 3, 3, 3, 3, 3, 3];
Elect_vehicle = [[70, 100, 30], [70, 100, 30], [70, 100, 30], [70, 100, 30], [70, 100, 30], [70, 100, 30], [70, 100, 30], [70, 100, 30], [70, 100, 30], [70, 100, 30], [70, 100, 30], [70, 100, 30], [70, 100, 30], [70, 100, 30], [70, 100, 30], [70, 100, 30], [70, 100, 30], [70, 100, 30], [70, 100, 30], [70, 100, 30], [70, 100, 30], [70, 100, 30], [70, 100, 30], [70, 100, 30], [70, 100, 30], [70, 100, 30], [70, 100, 30], [70, 100, 30], [70, 100, 30], [70, 100, 30], [70, 100, 30], [70, 100, 30], [80, 120, 30], [80, 120, 30], [80, 120, 30], [80, 120, 30], [80, 120, 30], [80, 120, 30], [80, 120, 30], [80, 120, 30], [80, 120, 30], [80, 120, 30], [80, 120, 30], [80, 120, 30], [80, 120, 30], [80, 120, 30], [80, 120, 30], [80, 120, 30], [80, 120, 30], [80, 120, 30], [80, 120, 30], [80, 120, 30], [80, 120, 30], [80, 120, 30], [80, 120, 30], [80, 120, 30], [80, 120, 30], [80, 120, 30], [80, 120, 30], [80, 120, 30], [80, 120, 30], [80, 120, 30], [80, 120, 30], [80, 120, 30], [90, 140, 40], [90, 140, 40], [90, 140, 40], [90, 140, 40], [90, 140, 40], [90, 140, 40], [90, 140, 40], [90, 140, 40], [90, 140, 40], [90, 140, 40], [90, 140, 40], [90, 140, 40], [90, 140, 40], [90, 140, 40], [90, 140, 40], [90, 140, 40], [90, 140, 40], [90, 140, 40], [90, 140, 40], [90, 140, 40], [90, 140, 40], [90, 140, 40], [90, 140, 40], [90, 140, 40], [90, 140, 40], [90, 140, 40], [90, 140, 40], [90, 140, 40], [90, 140, 40], [90, 140, 40], [90, 140, 40], [90, 140, 40]];